output ["power = ",let {array [int] of string: X_INTRODUCED_45425_ = [_toString_TOWER(X_INTRODUCED_45423_,true,false) | X_INTRODUCED_45423_ in index_set(power)], array [int] of string: X_INTRODUCED_45426_ = [showDzn(power[X_INTRODUCED_45424_]) | X_INTRODUCED_45424_ in index_set(power)]} in (show_indexed(X_INTRODUCED_45425_,X_INTRODUCED_45426_)),";\n"];
function string : _toString_TOWER(opt int: X_INTRODUCED_22_,bool: X_INTRODUCED_23_,bool: X_INTRODUCED_24_) = if occurs(X_INTRODUCED_22_) then if X_INTRODUCED_23_ then showDznId(_enum_to_string_0_TOWER[deopt(X_INTRODUCED_22_)]) elseif X_INTRODUCED_24_ then ("{\"e\":"++show(_enum_to_string_0_TOWER[deopt(X_INTRODUCED_22_)]))++"}" else _enum_to_string_0_TOWER[deopt(X_INTRODUCED_22_)] endif else if X_INTRODUCED_24_ then "null" else "<>" endif endif;
set of int: TOWER = 1..50;
array [TOWER] of int: power;
array [1..50] of string: _enum_to_string_0_TOWER = ["t0","t1","t2","t3","t4","t5","t6","t7","t8","t9","t10","t11","t12","t13","t14","t15","t16","t17","t18","t19","t20","t21","t22","t23","t24","t25","t26","t27","t28","t29","t30","t31","t32","t33","t34","t35","t36","t37","t38","t39","t40","t41","t42","t43","t44","t45","t46","t47","t48","t49"];
